Ordonnancement/plne/source/petit_instance/2job/2job_5.dat
data;
param nombreJob := 2;
param nombreRessource := 3;
param duree := 1 10 2 9;
param capaciteRessource := 1 4 2 8 3 17;
param besoinRessource : 1 2 3 :=
                    1   1 5 1
                    2   4 6 9;
end;

