Ordonnancement/plne/source/glpk_resultat/2job/2job_5.sol
Problem:    glpsolRcpsp
Rows:       132
Columns:    39 (38 integer, 38 binary)
Non-zeros:  603
Status:     INTEGER OPTIMAL
Objective:  obj = 19 (MINimum)

   No.   Row name        Activity     Lower bound   Upper bound
------ ------------    ------------- ------------- -------------
     1 periode[1]                 10            10             = 
     2 periode[2]                  9             9             = 
     3 complet[1,1]               10                          10 
     4 complet[1,2]               10                          10 
     5 complet[1,3]               10                          10 
     6 complet[1,4]               10                          10 
     7 complet[1,5]               10                          10 
     8 complet[1,6]               10                          10 
     9 complet[1,7]               10                          10 
    10 complet[1,8]               10                          10 
    11 complet[1,9]               -1                          10 
    12 complet[1,10]
                                   8                          10 
    13 complet[1,11]
                                   7                          10 
    14 complet[1,12]
                                   6                          10 
    15 complet[1,13]
                                   5                          10 
    16 complet[1,14]
                                   4                          10 
    17 complet[1,15]
                                   3                          10 
    18 complet[1,16]
                                   2                          10 
    19 complet[1,17]
                                   1                          10 
    20 complet[2,1]                7                           9 
    21 complet[2,2]                6                           9 
    22 complet[2,3]                5                           9 
    23 complet[2,4]                4                           9 
    24 complet[2,5]                3                           9 
    25 complet[2,6]                2                           9 
    26 complet[2,7]                1                           9 
    27 complet[2,8]                0                           9 
    28 complet[2,9]                9                           9 
    29 complet[2,10]
                                   0                           9 
    30 complet[2,11]
                                   0                           9 
    31 complet[2,12]
                                   0                           9 
    32 complet[2,13]
                                   0                           9 
    33 complet[2,14]
                                   0                           9 
    34 complet[2,15]
                                   0                           9 
    35 complet[2,16]
                                   0                           9 
    36 complet[2,17]
                                   0                           9 
    37 cmax[1,1]                  19            -0               
    38 cmax[1,2]                  19            -0               
    39 cmax[1,3]                  19            -0               
    40 cmax[1,4]                  19            -0               
    41 cmax[1,5]                  19            -0               
    42 cmax[1,6]                  19            -0               
    43 cmax[1,7]                  19            -0               
    44 cmax[1,8]                  19            -0               
    45 cmax[1,9]                  19            -0               
    46 cmax[1,10]                  9            -0               
    47 cmax[1,11]                  8            -0               
    48 cmax[1,12]                  7            -0               
    49 cmax[1,13]                  6            -0               
    50 cmax[1,14]                  5            -0               
    51 cmax[1,15]                  4            -0               
    52 cmax[1,16]                  3            -0               
    53 cmax[1,17]                  2            -0               
    54 cmax[1,18]                  1            -0               
    55 cmax[1,19]                  0            -0               
    56 cmax[2,1]                  18            -0               
    57 cmax[2,2]                  17            -0               
    58 cmax[2,3]                  16            -0               
    59 cmax[2,4]                  15            -0               
    60 cmax[2,5]                  14            -0               
    61 cmax[2,6]                  13            -0               
    62 cmax[2,7]                  12            -0               
    63 cmax[2,8]                  11            -0               
    64 cmax[2,9]                  10            -0               
    65 cmax[2,10]                 19            -0               
    66 cmax[2,11]                 19            -0               
    67 cmax[2,12]                 19            -0               
    68 cmax[2,13]                 19            -0               
    69 cmax[2,14]                 19            -0               
    70 cmax[2,15]                 19            -0               
    71 cmax[2,16]                 19            -0               
    72 cmax[2,17]                 19            -0               
    73 cmax[2,18]                 19            -0               
    74 cmax[2,19]                 19            -0               
    75 ressource[1,1]
                                   4                           4 
    76 ressource[1,2]
                                   4                           4 
    77 ressource[1,3]
                                   4                           4 
    78 ressource[1,4]
                                   4                           4 
    79 ressource[1,5]
                                   4                           4 
    80 ressource[1,6]
                                   4                           4 
    81 ressource[1,7]
                                   4                           4 
    82 ressource[1,8]
                                   4                           4 
    83 ressource[1,9]
                                   4                           4 
    84 ressource[1,10]
                                   1                           4 
    85 ressource[1,11]
                                   1                           4 
    86 ressource[1,12]
                                   1                           4 
    87 ressource[1,13]
                                   1                           4 
    88 ressource[1,14]
                                   1                           4 
    89 ressource[1,15]
                                   1                           4 
    90 ressource[1,16]
                                   1                           4 
    91 ressource[1,17]
                                   1                           4 
    92 ressource[1,18]
                                   1                           4 
    93 ressource[1,19]
                                   1                           4 
    94 ressource[2,1]
                                   6                           8 
    95 ressource[2,2]
                                   6                           8 
    96 ressource[2,3]
                                   6                           8 
    97 ressource[2,4]
                                   6                           8 
    98 ressource[2,5]
                                   6                           8 
    99 ressource[2,6]
                                   6                           8 
   100 ressource[2,7]
                                   6                           8 
   101 ressource[2,8]
                                   6                           8 
   102 ressource[2,9]
                                   6                           8 
   103 ressource[2,10]
                                   5                           8 
   104 ressource[2,11]
                                   5                           8 
   105 ressource[2,12]
                                   5                           8 
   106 ressource[2,13]
                                   5                           8 
   107 ressource[2,14]
                                   5                           8 
   108 ressource[2,15]
                                   5                           8 
   109 ressource[2,16]
                                   5                           8 
   110 ressource[2,17]
                                   5                           8 
   111 ressource[2,18]
                                   5                           8 
   112 ressource[2,19]
                                   5                           8 
   113 ressource[3,1]
                                   9                          17 
   114 ressource[3,2]
                                   9                          17 
   115 ressource[3,3]
                                   9                          17 
   116 ressource[3,4]
                                   9                          17 
   117 ressource[3,5]
                                   9                          17 
   118 ressource[3,6]
                                   9                          17 
   119 ressource[3,7]
                                   9                          17 
   120 ressource[3,8]
                                   9                          17 
   121 ressource[3,9]
                                   9                          17 
   122 ressource[3,10]
                                   1                          17 
   123 ressource[3,11]
                                   1                          17 
   124 ressource[3,12]
                                   1                          17 
   125 ressource[3,13]
                                   1                          17 
   126 ressource[3,14]
                                   1                          17 
   127 ressource[3,15]
                                   1                          17 
   128 ressource[3,16]
                                   1                          17 
   129 ressource[3,17]
                                   1                          17 
   130 ressource[3,18]
                                   1                          17 
   131 ressource[3,19]
                                   1                          17 
   132 obj                        19                             

   No. Column name       Activity     Lower bound   Upper bound
------ ------------    ------------- ------------- -------------
     1 x[1,1]       *              0             0             1 
     2 x[1,2]       *              0             0             1 
     3 x[1,3]       *              0             0             1 
     4 x[1,4]       *              0             0             1 
     5 x[1,5]       *              0             0             1 
     6 x[1,6]       *              0             0             1 
     7 x[1,7]       *              0             0             1 
     8 x[1,8]       *              0             0             1 
     9 x[1,9]       *              0             0             1 
    10 x[1,10]      *              1             0             1 
    11 x[1,11]      *              1             0             1 
    12 x[1,12]      *              1             0             1 
    13 x[1,13]      *              1             0             1 
    14 x[1,14]      *              1             0             1 
    15 x[1,15]      *              1             0             1 
    16 x[1,16]      *              1             0             1 
    17 x[1,17]      *              1             0             1 
    18 x[1,18]      *              1             0             1 
    19 x[1,19]      *              1             0             1 
    20 x[2,1]       *              1             0             1 
    21 x[2,2]       *              1             0             1 
    22 x[2,3]       *              1             0             1 
    23 x[2,4]       *              1             0             1 
    24 x[2,5]       *              1             0             1 
    25 x[2,6]       *              1             0             1 
    26 x[2,7]       *              1             0             1 
    27 x[2,8]       *              1             0             1 
    28 x[2,9]       *              1             0             1 
    29 x[2,10]      *              0             0             1 
    30 x[2,11]      *              0             0             1 
    31 x[2,12]      *              0             0             1 
    32 x[2,13]      *              0             0             1 
    33 x[2,14]      *              0             0             1 
    34 x[2,15]      *              0             0             1 
    35 x[2,16]      *              0             0             1 
    36 x[2,17]      *              0             0             1 
    37 x[2,18]      *              0             0             1 
    38 x[2,19]      *              0             0             1 
    39 z                          19                             

Integer feasibility conditions:

KKT.PE: max.abs.err = 0.00e+00 on row 0
        max.rel.err = 0.00e+00 on row 0
        High quality

KKT.PB: max.abs.err = 0.00e+00 on row 0
        max.rel.err = 0.00e+00 on row 0
        High quality

End of output
